proyfinal/src/viki/013/experimentInOfficeAgust.take6.output/4dca23b4-ef7d-4491-a6f8-d757eacd0aea.als.dat
{'cnf.clauses': '118081',
 'cnf.totvars': '69608',
 'conflict literals': '122',
 'conflicts': '36',
 'decisions': '5759',
 'memused.mb': '16.59',
 'outcome': 'UNSAT',
 'propagations': '27576',
 'restarts': '1',
 'solver.msecs': 28,
 'task.msecs': 79}
