proyfinal/src/viki/013/experimentInOfficeAgust.take6.output/4dca23b4-ef7d-4491-a6f8-d757eacd0aea.als.out
Reading from standard input... Use '--help' for help.
============================[ Problem Statistics ]=============================
|                                                                             |
|  Number of variables:         69608                                         |
|  Number of clauses:          118081                                         |
|  Parse time:                   0.02 s                                       |
|                                                                             |
============================[ Search Statistics ]==============================
| Conflicts |          ORIGINAL         |          LEARNT          | Progress |
|           |    Vars  Clauses Literals |    Limit  Clauses Lit/Cl |          |
===============================================================================
===============================================================================
restarts              : 1
conflicts             : 36             (1245 /sec)
decisions             : 5759           (0.00 % random) (199101 /sec)
propagations          : 27576          (953362 /sec)
conflict literals     : 122            (0.00 % deleted)
Memory used           : 16.59 MB
CPU time              : 0.028925 s

UNSATISFIABLE
